# Solution for model Transicion a camiones eléctricos
# Objective value = 480000
y_clh[1,1,1] 0
y_clh[1,1,2] 0
y_clh[1,1,3] 0
y_clh[1,1,4] 0
y_clh[1,1,5] 0
y_clh[1,1,6] 0
y_clh[1,1,7] 0
y_clh[1,1,8] 0
y_clh[1,1,9] 0
y_clh[1,1,10] 0
y_clh[1,1,11] 0
y_clh[1,1,12] 0
y_clh[1,1,13] 0
y_clh[1,1,14] 0
y_clh[1,1,15] 0
y_clh[1,1,16] 0
y_clh[1,1,17] 0
y_clh[1,1,18] 0
y_clh[1,1,19] 0
y_clh[1,1,20] 0
y_clh[1,1,21] 0
y_clh[1,1,22] 0
y_clh[1,1,23] 0
y_clh[1,1,24] 0
y_clh[1,2,1] 0
y_clh[1,2,2] 0
y_clh[1,2,3] 0
y_clh[1,2,4] 0
y_clh[1,2,5] 0
y_clh[1,2,6] 0
y_clh[1,2,7] 0
y_clh[1,2,8] 0
y_clh[1,2,9] 0
y_clh[1,2,10] 0
y_clh[1,2,11] 0
y_clh[1,2,12] 0
y_clh[1,2,13] 0
y_clh[1,2,14] 0
y_clh[1,2,15] 0
y_clh[1,2,16] 0
y_clh[1,2,17] 0
y_clh[1,2,18] 0
y_clh[1,2,19] 0
y_clh[1,2,20] 0
y_clh[1,2,21] 0
y_clh[1,2,22] 0
y_clh[1,2,23] 0
y_clh[1,2,24] 0
y_clh[2,1,1] 0
y_clh[2,1,2] 0
y_clh[2,1,3] 0
y_clh[2,1,4] 0
y_clh[2,1,5] 0
y_clh[2,1,6] 0
y_clh[2,1,7] 0
y_clh[2,1,8] 0
y_clh[2,1,9] 0
y_clh[2,1,10] 0
y_clh[2,1,11] 0
y_clh[2,1,12] 0
y_clh[2,1,13] 0
y_clh[2,1,14] 0
y_clh[2,1,15] 0
y_clh[2,1,16] 0
y_clh[2,1,17] 0
y_clh[2,1,18] 0
y_clh[2,1,19] 0
y_clh[2,1,20] 0
y_clh[2,1,21] 0
y_clh[2,1,22] 0
y_clh[2,1,23] 0
y_clh[2,1,24] 0
y_clh[2,2,1] 0
y_clh[2,2,2] 0
y_clh[2,2,3] 0
y_clh[2,2,4] 0
y_clh[2,2,5] 0
y_clh[2,2,6] 0
y_clh[2,2,7] 0
y_clh[2,2,8] 0
y_clh[2,2,9] 0
y_clh[2,2,10] 0
y_clh[2,2,11] 0
y_clh[2,2,12] 0
y_clh[2,2,13] 0
y_clh[2,2,14] 0
y_clh[2,2,15] 0
y_clh[2,2,16] 0
y_clh[2,2,17] 0
y_clh[2,2,18] 0
y_clh[2,2,19] 0
y_clh[2,2,20] 0
y_clh[2,2,21] 0
y_clh[2,2,22] 0
y_clh[2,2,23] 0
y_clh[2,2,24] 0
y_clh[3,1,1] 0
y_clh[3,1,2] 0
y_clh[3,1,3] 0
y_clh[3,1,4] 0
y_clh[3,1,5] 0
y_clh[3,1,6] 0
y_clh[3,1,7] 0
y_clh[3,1,8] 0
y_clh[3,1,9] 0
y_clh[3,1,10] 0
y_clh[3,1,11] 0
y_clh[3,1,12] 0
y_clh[3,1,13] 0
y_clh[3,1,14] 0
y_clh[3,1,15] 0
y_clh[3,1,16] 0
y_clh[3,1,17] 0
y_clh[3,1,18] 0
y_clh[3,1,19] 0
y_clh[3,1,20] 0
y_clh[3,1,21] 0
y_clh[3,1,22] 0
y_clh[3,1,23] 0
y_clh[3,1,24] 0
y_clh[3,2,1] 0
y_clh[3,2,2] 0
y_clh[3,2,3] 0
y_clh[3,2,4] 0
y_clh[3,2,5] 0
y_clh[3,2,6] 0
y_clh[3,2,7] 0
y_clh[3,2,8] 0
y_clh[3,2,9] 0
y_clh[3,2,10] 0
y_clh[3,2,11] 0
y_clh[3,2,12] 0
y_clh[3,2,13] 0
y_clh[3,2,14] 0
y_clh[3,2,15] 0
y_clh[3,2,16] 0
y_clh[3,2,17] 0
y_clh[3,2,18] 0
y_clh[3,2,19] 0
y_clh[3,2,20] 0
y_clh[3,2,21] 0
y_clh[3,2,22] 0
y_clh[3,2,23] 0
y_clh[3,2,24] 0
y_clh[4,1,1] 0
y_clh[4,1,2] 0
y_clh[4,1,3] 0
y_clh[4,1,4] 0
y_clh[4,1,5] 0
y_clh[4,1,6] 0
y_clh[4,1,7] 0
y_clh[4,1,8] 0
y_clh[4,1,9] 0
y_clh[4,1,10] 0
y_clh[4,1,11] 0
y_clh[4,1,12] 0
y_clh[4,1,13] 0
y_clh[4,1,14] 0
y_clh[4,1,15] 0
y_clh[4,1,16] 0
y_clh[4,1,17] 0
y_clh[4,1,18] 0
y_clh[4,1,19] 0
y_clh[4,1,20] 0
y_clh[4,1,21] 0
y_clh[4,1,22] 0
y_clh[4,1,23] 0
y_clh[4,1,24] 0
y_clh[4,2,1] 0
y_clh[4,2,2] 0
y_clh[4,2,3] 0
y_clh[4,2,4] 0
y_clh[4,2,5] 0
y_clh[4,2,6] 0
y_clh[4,2,7] 0
y_clh[4,2,8] 0
y_clh[4,2,9] 0
y_clh[4,2,10] 0
y_clh[4,2,11] 0
y_clh[4,2,12] 0
y_clh[4,2,13] 0
y_clh[4,2,14] 0
y_clh[4,2,15] 0
y_clh[4,2,16] 0
y_clh[4,2,17] 0
y_clh[4,2,18] 0
y_clh[4,2,19] 0
y_clh[4,2,20] 0
y_clh[4,2,21] 0
y_clh[4,2,22] 0
y_clh[4,2,23] 0
y_clh[4,2,24] 0
x_crh[1,1,1] 0
x_crh[1,1,2] 0
x_crh[1,1,3] 0
x_crh[1,1,4] 0
x_crh[1,1,5] 0
x_crh[1,1,6] 0
x_crh[1,1,7] 0
x_crh[1,1,8] 0
x_crh[1,1,9] 0
x_crh[1,1,10] 0
x_crh[1,1,11] 0
x_crh[1,1,12] 0
x_crh[1,1,13] 0
x_crh[1,1,14] 0
x_crh[1,1,15] 0
x_crh[1,1,16] 0
x_crh[1,1,17] 0
x_crh[1,1,18] 0
x_crh[1,1,19] 0
x_crh[1,1,20] 0
x_crh[1,1,21] 0
x_crh[1,1,22] 0
x_crh[1,1,23] 0
x_crh[1,1,24] 0
x_crh[2,1,1] 0
x_crh[2,1,2] 0
x_crh[2,1,3] 0
x_crh[2,1,4] 0
x_crh[2,1,5] 0
x_crh[2,1,6] 0
x_crh[2,1,7] 0
x_crh[2,1,8] 0
x_crh[2,1,9] 0
x_crh[2,1,10] 0
x_crh[2,1,11] 0
x_crh[2,1,12] 0
x_crh[2,1,13] 0
x_crh[2,1,14] 0
x_crh[2,1,15] 0
x_crh[2,1,16] 0
x_crh[2,1,17] 0
x_crh[2,1,18] 0
x_crh[2,1,19] 0
x_crh[2,1,20] 0
x_crh[2,1,21] 0
x_crh[2,1,22] 0
x_crh[2,1,23] 0
x_crh[2,1,24] 0
x_crh[3,1,1] 0
x_crh[3,1,2] 0
x_crh[3,1,3] 0
x_crh[3,1,4] 0
x_crh[3,1,5] 0
x_crh[3,1,6] 0
x_crh[3,1,7] 0
x_crh[3,1,8] 0
x_crh[3,1,9] 0
x_crh[3,1,10] 0
x_crh[3,1,11] 0
x_crh[3,1,12] 0
x_crh[3,1,13] 0
x_crh[3,1,14] 0
x_crh[3,1,15] 0
x_crh[3,1,16] 0
x_crh[3,1,17] 0
x_crh[3,1,18] 0
x_crh[3,1,19] 0
x_crh[3,1,20] 0
x_crh[3,1,21] 0
x_crh[3,1,22] 0
x_crh[3,1,23] 0
x_crh[3,1,24] 0
x_crh[4,1,1] 0
x_crh[4,1,2] 0
x_crh[4,1,3] 0
x_crh[4,1,4] 0
x_crh[4,1,5] 0
x_crh[4,1,6] 0
x_crh[4,1,7] 0
x_crh[4,1,8] 0
x_crh[4,1,9] 0
x_crh[4,1,10] 0
x_crh[4,1,11] 0
x_crh[4,1,12] 0
x_crh[4,1,13] 0
x_crh[4,1,14] 0
x_crh[4,1,15] 0
x_crh[4,1,16] 0
x_crh[4,1,17] 0
x_crh[4,1,18] 0
x_crh[4,1,19] 0
x_crh[4,1,20] 0
x_crh[4,1,21] 0
x_crh[4,1,22] 0
x_crh[4,1,23] 0
x_crh[4,1,24] 0
u_lh[1,1] 0
u_lh[1,2] 0
u_lh[1,3] 0
u_lh[1,4] 0
u_lh[1,5] 0
u_lh[1,6] 0
u_lh[1,7] 0
u_lh[1,8] 0
u_lh[1,9] 0
u_lh[1,10] 0
u_lh[1,11] 0
u_lh[1,12] 0
u_lh[1,13] 0
u_lh[1,14] 0
u_lh[1,15] 0
u_lh[1,16] 0
u_lh[1,17] 0
u_lh[1,18] 0
u_lh[1,19] 0
u_lh[1,20] 0
u_lh[1,21] 0
u_lh[1,22] 0
u_lh[1,23] 0
u_lh[1,24] 0
u_lh[2,1] 0
u_lh[2,2] 0
u_lh[2,3] 0
u_lh[2,4] 0
u_lh[2,5] 0
u_lh[2,6] 0
u_lh[2,7] 0
u_lh[2,8] 0
u_lh[2,9] 0
u_lh[2,10] 0
u_lh[2,11] 0
u_lh[2,12] 0
u_lh[2,13] 0
u_lh[2,14] 0
u_lh[2,15] 0
u_lh[2,16] 0
u_lh[2,17] 0
u_lh[2,18] 0
u_lh[2,19] 0
u_lh[2,20] 0
u_lh[2,21] 0
u_lh[2,22] 0
u_lh[2,23] 0
u_lh[2,24] 0
v_rh[1,1] 0
v_rh[1,2] 0
v_rh[1,3] 0
v_rh[1,4] 0
v_rh[1,5] 0
v_rh[1,6] 0
v_rh[1,7] 0
v_rh[1,8] 0
v_rh[1,9] 0
v_rh[1,10] 0
v_rh[1,11] 0
v_rh[1,12] 0
v_rh[1,13] 0
v_rh[1,14] 0
v_rh[1,15] 0
v_rh[1,16] 0
v_rh[1,17] 0
v_rh[1,18] 0
v_rh[1,19] 0
v_rh[1,20] 0
v_rh[1,21] 0
v_rh[1,22] 0
v_rh[1,23] 0
v_rh[1,24] 0
ex_c[1] 0
ex_c[2] 0
ex_c[3] 1
ex_c[4] 0
